% From JaCoP's nonogramRepository/data019.nin
 rows = 20;
 row_rule_len = 5;
 row_rules = array2d(1..rows, 1..row_rule_len, 
[
 0,0,0,0,4,
 0,0,2,2,6,
 4,4,1,1,1,
 4,4,2,1,2,
 3,4,1,3,2,
 0,3,2,7,1,
 0,2,1,3,3,
 0,0,0,3,4,
 0,0,0,3,5,
 0,0,0,2,4,
 0,0,0,2,5,
 0,1,1,1,4,
 0,1,2,1,3,
 0,2,3,2,2,
 0,0,0,11,4,
 0,0,11,2,1,
 0,0,0,6,6,
 0,0,3,1,5,
 0,2,1,2,1,
 0,2,1,2,1
]);

 cols = 20;
 col_rule_len = 5;
 col_rules = array2d(1..cols, 1..col_rule_len, 
[
 0,0,0,0,8,
 0,0,0,7,5,
 0,0,0,7,6,
 0,0,5,2,6,
 0,0,0,3,5,
 0,0,0,3,7,
 0,0,0,3,4,
 0,0,0,4,2,
 0,0,0,4,5,
 0,0,0,3,5,
 0,0,0,4,6,
 0,0,0,1,5,
 0,0,0,8,2,
 0,0,2,8,5,
 0,0,3,8,3,
 2,1,1,6,1,
 0,0,2,2,8,
 0,0,3,1,5,
 0,0,0,2,1,
 0,0,0,0,2
]);

